GLPSOL--GLPK LP/MIP Solver 5.0
Parameter(s) specified in the command line:
 --lp ../modeles/15_194.lp --log 15_194.log
Reading problem data from '../modeles/15_194.lp'...
2971 rows, 5850 columns, 20415 non-zeros
2910 integer variables, all of which are binary
8842 lines were read
GLPK Integer Optimizer 5.0
2971 rows, 5850 columns, 20415 non-zeros
2910 integer variables, all of which are binary
Preprocessing...
2910 constraint coefficient(s) were reduced
2971 rows, 5835 columns, 20400 non-zeros
2910 integer variables, all of which are binary
Scaling...
 A: min|aij| =  4.251e-04  max|aij| =  4.000e+00  ratio =  9.409e+03
GM: min|aij| =  1.015e-01  max|aij| =  9.849e+00  ratio =  9.700e+01
EQ: min|aij| =  1.031e-02  max|aij| =  1.000e+00  ratio =  9.700e+01
2N: min|aij| =  7.812e-03  max|aij| =  1.766e+00  ratio =  2.260e+02
Constructing initial basis...
Size of triangular part is 2971
Solving LP relaxation...
GLPK Simplex Optimizer 5.0
2971 rows, 5835 columns, 20400 non-zeros
      0: obj =   3.000000000e+01 inf =   7.450e+01 (31)
    224: obj =   3.585286770e-02 inf =   0.000e+00 (0)
*   753: obj =  -3.869896907e+00 inf =   0.000e+00 (0) 1
OPTIMAL LP SOLUTION FOUND
Integer optimization begins...
Long-step dual simplex will be used
+   753: mip =     not found yet >=              -inf        (1; 0)
+   761: >>>>>  -3.869896907e+00 >=  -3.869896907e+00   0.0% (5; 0)
+   761: mip =  -3.869896907e+00 >=     tree is empty   0.0% (0; 9)
INTEGER OPTIMAL SOLUTION FOUND
Time used:   0.1 secs
Memory used: 8.4 Mb (8767599 bytes)
